Set parameter TokenServer to value "opt-license.discovery.wisc.edu"
Set parameter TimeLimit to value 600
Gurobi Optimizer version 9.5.1 build v9.5.1rc2 (linux64)
Thread count: 40 physical cores, 80 logical processors, using up to 32 threads
Optimize a model with 14771 rows, 22120 columns and 80358 nonzeros
Model fingerprint: 0xdf256587
Variable types: 17220 continuous, 4900 integer (4900 binary)
Coefficient statistics:
  Matrix range     [1e+00, 3e+03]
  Objective range  [1e+00, 1e+01]
  Bounds range     [1e+00, 1e+00]
  RHS range        [1e+00, 4e+00]
Presolve removed 140 rows and 246 columns
Presolve time: 0.34s
Presolved: 14631 rows, 21874 columns, 79858 nonzeros
Variable types: 16974 continuous, 4900 integer (4900 binary)

Root relaxation: objective 1.148896e+02, 2544 iterations, 0.26 seconds (0.15 work units)

    Nodes    |    Current Node    |     Objective Bounds      |     Work
 Expl Unexpl |  Obj  Depth IntInf | Incumbent    BestBd   Gap | It/Node Time

     0     0  114.88961    0   42          -  114.88961      -     -    0s
H    0     0                     165.4611045  114.88961  30.6%     -    1s
H    0     0                     156.3632479  114.88961  26.5%     -    1s
     0     0  114.89028    0   44  156.36325  114.89028  26.5%     -    1s
H    0     0                     115.5886947  114.89028  0.60%     -    1s
     0     0  114.90951    0   44  115.58869  114.90951  0.59%     -    1s
     0     0  114.98666    0   82  115.58869  114.98666  0.52%     -    1s
     0     0  114.98666    0    6  115.58869  114.98666  0.52%     -    1s
     0     0  115.06663    0   27  115.58869  115.06663  0.45%     -    1s
H    0     0                     115.4396092  115.06663  0.32%     -    1s
     0     0  115.33529    0   18  115.43961  115.33529  0.09%     -    2s

Cutting planes:
  Gomory: 5
  Cover: 1
  MIR: 2
  StrongCG: 1
  Flow cover: 2
  GUB cover: 1

Explored 1 nodes (2973 simplex iterations) in 2.01 seconds (0.92 work units)
Thread count was 32 (of 80 available processors)

Solution count 4: 115.44 115.589 156.363 165.461 

Optimal solution found (tolerance 1.00e-04)
Best objective 1.154396091977e+02, best bound 1.154396091977e+02, gap 0.0000%
